NAME : A-n5-k2
COMMENT : (Augerat et al, Min no of trucks: 5, Optimal value: 784)
TYPE : CVRP
DIMENSION : 5
EDGE_WEIGHT_TYPE : EUC_2D 
CAPACITY : 100
NODE_COORD_SECTION 
 1 82 76
 2 49 8
 3 5 10
 4 85 60
 5 98 5
DEMAND_SECTION 
1 0 
2 19 
3 21 
4 6 
5 19 
DEPOT_SECTION 
 1  
 -1  
EOF 
